c Result of efficient AIG-to-CNF conversion using package CNF
p cnf 585 2102
-2 3 216 380 492 0
-2 -3 -216 380 492 0
2 -492 0
2 -3 216 0
2 -380 0
2 3 -216 0
3 548 -4 184 0
3 -548 184 -195 0
-3 -184 0
-3 -548 195 0
-3 548 4 0
4 549 -5 0
4 -549 -156 0
-4 -549 156 0
-4 549 5 0
5 550 -6 0
5 -550 -127 0
-5 -550 127 0
-5 550 6 0
6 551 -7 0
6 -551 -100 0
-6 -551 100 0
-6 551 7 0
7 552 -8 0
7 -552 -72 0
-7 -552 72 0
-7 552 8 0
8 -580 9 -51 0
8 580 9 -20 0
-8 -9 0
-8 -580 51 0
-8 580 20 0
-9 10 16 18 19 0
9 -19 0
9 -10 0
9 -18 0
9 -16 0
-10 577 578 11 13 0
10 -577 0
10 -13 0
10 -11 0
10 -578 0
-11 569 575 576 12 0
11 -12 0
11 -576 0
11 -569 0
11 -575 0
-12 573 574 579 0
12 -573 0
12 -579 0
12 -574 0
-13 570 571 572 14 0
13 -14 0
13 -572 0
13 -570 0
13 -571 0
-14 565 566 15 0
14 -15 0
14 -566 0
14 -565 0
-15 561 562 567 568 0
15 -568 0
15 -567 0
15 -561 0
15 -562 0
-16 559 563 564 17 0
16 -17 0
16 -564 0
16 -559 0
16 -563 0
-17 557 558 0
17 -557 0
17 -558 0
-18 553 560 0
18 -553 0
18 -560 0
-19 554 555 556 0
19 -554 0
19 -556 0
19 -555 0
-20 581 21 0
-20 -581 36 0
20 -581 -36 0
20 581 -21 0
-21 582 29 0
-21 -582 22 0
21 -582 -22 0
21 582 -29 0
22 583 -23 0
22 -583 -26 0
-22 -583 26 0
-22 583 23 0
23 -584 -25 0
23 584 -24 0
-23 584 24 0
-23 -584 25 0
-24 529 561 0
24 -529 0
24 -561 0
-25 530 562 0
25 -530 0
25 -562 0
26 -584 -28 0
26 584 -27 0
-26 584 27 0
-26 -584 28 0
-27 531 563 0
27 -531 0
27 -563 0
-28 532 564 0
28 -532 0
28 -564 0
29 583 -30 0
29 -583 -33 0
-29 -583 33 0
-29 583 30 0
30 -584 -32 0
30 584 -31 0
-30 584 31 0
-30 -584 32 0
-31 525 557 0
31 -525 0
31 -557 0
-32 526 558 0
32 -526 0
32 -558 0
33 -584 -35 0
33 584 -34 0
-33 584 34 0
-33 -584 35 0
-34 527 559 0
34 -527 0
34 -559 0
-35 528 560 0
35 -528 0
35 -560 0
36 582 -37 0
36 -582 -44 0
-36 -582 44 0
-36 582 37 0
37 583 -38 0
37 -583 -41 0
-37 -583 41 0
-37 583 38 0
38 -584 -40 0
38 584 -39 0
-38 584 39 0
-38 -584 40 0
-39 533 565 0
39 -533 0
39 -565 0
-40 534 566 0
40 -534 0
40 -566 0
41 -584 -43 0
41 584 -42 0
-41 584 42 0
-41 -584 43 0
-42 535 567 0
42 -535 0
42 -567 0
-43 536 568 0
43 -536 0
43 -568 0
44 583 -45 0
44 -583 -48 0
-44 -583 48 0
-44 583 45 0
45 -584 -47 0
45 584 -46 0
-45 584 46 0
-45 -584 47 0
-46 537 569 0
46 -537 0
46 -569 0
-47 538 570 0
47 -538 0
47 -570 0
48 -584 -50 0
48 584 -49 0
-48 584 49 0
-48 -584 50 0
-49 539 571 0
49 -539 0
49 -571 0
-50 540 572 0
50 -540 0
50 -572 0
51 581 -52 0
51 -581 -67 0
-51 -581 67 0
-51 581 52 0
52 582 -53 0
52 -582 -60 0
-52 -582 60 0
-52 582 53 0
53 583 -54 0
53 -583 -57 0
-53 -583 57 0
-53 583 54 0
54 -584 -56 0
54 584 -55 0
-54 584 55 0
-54 -584 56 0
-55 541 573 0
55 -541 0
55 -573 0
-56 542 574 0
56 -542 0
56 -574 0
57 -584 -59 0
57 584 -58 0
-57 584 58 0
-57 -584 59 0
-58 543 575 0
58 -543 0
58 -575 0
-59 544 576 0
59 -544 0
59 -576 0
60 583 -61 0
60 -583 -64 0
-60 -583 64 0
-60 583 61 0
61 -584 -63 0
61 584 -62 0
-61 584 62 0
-61 -584 63 0
-62 545 577 0
62 -545 0
62 -577 0
-63 546 578 0
63 -546 0
63 -578 0
64 -584 -66 0
64 584 -65 0
-64 584 65 0
-64 -584 66 0
-65 547 579 0
65 -547 0
65 -579 0
-66 548 580 0
66 -548 0
66 -580 0
67 582 -68 0
-67 -582 0
-67 68 0
-68 583 69 0
68 -583 0
68 -69 0
69 -584 -71 0
69 584 -70 0
-69 584 70 0
-69 -584 71 0
-70 549 581 0
70 -549 0
70 -581 0
-71 550 582 0
71 -550 0
71 -582 0
72 -580 9 -88 0
72 580 9 -73 0
-72 -9 0
-72 -580 88 0
-72 580 73 0
-73 581 74 0
-73 -581 81 0
73 -581 -81 0
73 581 -74 0
-74 582 78 0
-74 -582 75 0
74 -582 -75 0
74 582 -78 0
75 583 -76 0
75 -583 -77 0
-75 -583 77 0
-75 583 76 0
76 -584 -27 0
76 584 -25 0
-76 584 25 0
-76 -584 27 0
77 -584 -39 0
77 584 -28 0
-77 584 28 0
-77 -584 39 0
78 583 -79 0
78 -583 -80 0
-78 -583 80 0
-78 583 79 0
79 -584 -34 0
79 584 -32 0
-79 584 32 0
-79 -584 34 0
80 584 -35 0
80 -584 -24 0
-80 -584 24 0
-80 584 35 0
81 582 -82 0
81 -582 -85 0
-81 -582 85 0
-81 582 82 0
82 583 -83 0
82 -583 -84 0
-82 -583 84 0
-82 583 83 0
83 -584 -42 0
83 584 -40 0
-83 584 40 0
-83 -584 42 0
84 -584 -46 0
84 584 -43 0
-84 584 43 0
-84 -584 46 0
85 583 -86 0
85 -583 -87 0
-85 -583 87 0
-85 583 86 0
86 -584 -49 0
86 584 -47 0
-86 584 47 0
-86 -584 49 0
87 -584 -55 0
87 584 -50 0
-87 584 50 0
-87 -584 55 0
88 581 -89 0
88 -581 -96 0
-88 -581 96 0
-88 581 89 0
89 582 -90 0
89 -582 -93 0
-89 -582 93 0
-89 582 90 0
90 583 -91 0
90 -583 -92 0
-90 -583 92 0
-90 583 91 0
91 -584 -58 0
91 584 -56 0
-91 584 56 0
-91 -584 58 0
92 -584 -62 0
92 584 -59 0
-92 584 59 0
-92 -584 62 0
93 583 -94 0
93 -583 -95 0
-93 -583 95 0
-93 583 94 0
94 -584 -65 0
94 584 -63 0
-94 584 63 0
-94 -584 65 0
95 -584 -70 0
95 584 -66 0
-95 584 66 0
-95 -584 70 0
96 582 -97 0
-96 -582 0
-96 97 0
97 583 -98 0
97 -552 -583 584 0
-97 583 98 0
-97 -583 -584 0
-97 552 -583 0
98 -584 -99 0
98 584 -71 0
-98 584 71 0
-98 -584 99 0
-99 551 583 0
99 -551 0
99 -583 0
100 552 -101 0
100 -552 -114 0
-100 -552 114 0
-100 552 101 0
101 -580 9 -109 0
101 580 9 -102 0
-101 -9 0
-101 -580 109 0
-101 580 102 0
-102 581 103 0
-102 -581 106 0
102 -581 -106 0
102 581 -103 0
-103 582 105 0
-103 -582 104 0
103 -582 -104 0
103 582 -105 0
104 583 -26 0
104 -583 -38 0
-104 -583 38 0
-104 583 26 0
105 -583 -23 0
105 583 -33 0
-105 583 33 0
-105 -583 23 0
106 582 -107 0
106 -582 -108 0
-106 -582 108 0
-106 582 107 0
107 583 -41 0
107 -583 -45 0
-107 -583 45 0
-107 583 41 0
108 583 -48 0
108 -583 -54 0
-108 -583 54 0
-108 583 48 0
109 581 -110 0
109 -581 -113 0
-109 -581 113 0
-109 581 110 0
110 582 -111 0
110 -582 -112 0
-110 -582 112 0
-110 582 111 0
111 583 -57 0
111 -583 -61 0
-111 -583 61 0
-111 583 57 0
112 583 -64 0
112 -583 -69 0
-112 -583 69 0
-112 583 64 0
113 582 583 -584 0
113 -551 582 583 0
-113 -583 0
-113 -582 0
-113 551 584 0
114 -580 9 -122 0
114 580 9 -115 0
-114 -9 0
-114 -580 122 0
-114 580 115 0
-115 581 116 0
-115 -581 119 0
115 -581 -119 0
115 581 -116 0
-116 582 118 0
-116 -582 117 0
116 -582 -117 0
116 582 -118 0
117 583 -77 0
117 -583 -83 0
-117 -583 83 0
-117 583 77 0
118 -583 -76 0
118 583 -80 0
-118 583 80 0
-118 -583 76 0
119 582 -120 0
119 -582 -121 0
-119 -582 121 0
-119 582 120 0
120 583 -84 0
120 -583 -86 0
-120 -583 86 0
-120 583 84 0
121 583 -87 0
121 -583 -91 0
-121 -583 91 0
-121 583 87 0
122 581 -123 0
122 -581 -126 0
-122 -581 126 0
-122 581 123 0
123 582 -124 0
123 -582 -125 0
-123 -582 125 0
-123 582 124 0
124 583 -92 0
124 -583 -94 0
-124 -583 94 0
-124 583 92 0
125 -583 -584 0
125 583 -95 0
125 -583 -71 0
-125 583 95 0
-125 -583 584 71 0
126 -552 582 583 584 0
-126 -584 0
-126 -583 0
-126 552 0
-126 -582 0
127 551 -128 0
127 -551 -141 0
-127 -551 141 0
-127 551 128 0
128 552 -129 0
128 -552 -135 0
-128 -552 135 0
-128 552 129 0
129 -580 9 -133 0
129 580 9 -130 0
-129 -9 0
-129 -580 133 0
-129 580 130 0
130 581 -131 0
130 -581 -132 0
-130 -581 132 0
-130 581 131 0
131 582 -22 0
131 -582 -37 0
-131 -582 37 0
-131 582 22 0
132 582 -44 0
132 -582 -53 0
-132 -582 53 0
-132 582 44 0
133 581 -134 0
-133 -581 0
-133 134 0
134 582 -60 0
134 -582 -68 0
-134 -582 68 0
-134 582 60 0
135 -580 9 -139 0
135 580 9 -136 0
-135 -9 0
-135 -580 139 0
-135 580 136 0
136 581 -137 0
136 -581 -138 0
-136 -581 138 0
-136 581 137 0
137 582 -75 0
137 -582 -82 0
-137 -582 82 0
-137 582 75 0
138 582 -85 0
138 -582 -90 0
-138 -582 90 0
-138 582 85 0
139 581 -140 0
-139 -581 0
-139 140 0
140 582 -93 0
140 -582 -97 0
-140 -582 97 0
-140 582 93 0
141 552 -142 0
141 -552 -149 0
-141 -552 149 0
-141 552 142 0
142 -580 9 -146 0
142 580 9 -143 0
-142 -9 0
-142 -580 146 0
-142 580 143 0
143 581 -144 0
143 -581 -145 0
-143 -581 145 0
-143 581 144 0
144 582 -104 0
144 -582 -107 0
-144 -582 107 0
-144 582 104 0
145 582 -108 0
145 -582 -111 0
-145 -582 111 0
-145 582 108 0
146 581 -147 0
-146 -581 0
-146 147 0
147 582 -112 0
147 -582 -148 0
-147 -582 148 0
-147 582 112 0
148 -551 583 0
148 583 -584 0
-148 -583 0
-148 551 584 0
149 -580 9 -153 0
149 580 9 -150 0
-149 -9 0
-149 -580 153 0
-149 580 150 0
150 581 -151 0
150 -581 -152 0
-150 -581 152 0
-150 581 151 0
151 582 -117 0
151 -582 -120 0
-151 -582 120 0
-151 582 117 0
152 582 -121 0
152 -582 -124 0
-152 -582 124 0
-152 582 121 0
153 581 -154 0
-153 -581 0
-153 154 0
154 582 -125 0
154 -582 -155 0
-154 -582 155 0
-154 582 125 0
155 -552 583 584 0
-155 552 0
-155 -584 0
-155 -583 0
156 550 -157 0
156 -550 -172 0
-156 -550 172 0
-156 550 157 0
157 551 -158 0
157 -551 -165 0
-157 -551 165 0
-157 551 158 0
158 552 -159 0
158 -552 -162 0
-158 -552 162 0
-158 552 159 0
159 -580 9 -161 0
159 580 9 -160 0
-159 -9 0
-159 -580 161 0
-159 580 160 0
160 581 -36 0
160 -581 -52 0
-160 -581 52 0
-160 581 36 0
161 581 -67 0
-161 -581 0
-161 67 0
162 -580 9 -164 0
162 580 9 -163 0
-162 -9 0
-162 -580 164 0
-162 580 163 0
163 581 -81 0
163 -581 -89 0
-163 -581 89 0
-163 581 81 0
164 581 -96 0
-164 -581 0
-164 96 0
165 552 -166 0
165 -552 -169 0
-165 -552 169 0
-165 552 166 0
166 -580 9 -168 0
166 580 9 -167 0
-166 -9 0
-166 -580 168 0
-166 580 167 0
167 581 -106 0
167 -581 -110 0
-167 -581 110 0
-167 581 106 0
168 581 -113 0
-168 -581 0
-168 113 0
169 -580 9 -171 0
169 580 9 -170 0
-169 -9 0
-169 -580 171 0
-169 580 170 0
170 581 -119 0
170 -581 -123 0
-170 -581 123 0
-170 581 119 0
171 581 -126 0
-171 -581 0
-171 126 0
172 551 -173 0
172 -551 -179 0
-172 -551 179 0
-172 551 173 0
173 552 -174 0
173 -552 -177 0
-173 -552 177 0
-173 552 174 0
174 175 -176 0
-174 -175 0
-174 176 0
-175 580 9 0
175 -580 0
175 -9 0
176 581 -132 0
176 -581 -134 0
-176 -581 134 0
-176 581 132 0
177 175 -178 0
-177 -175 0
-177 178 0
178 581 -138 0
178 -581 -140 0
-178 -581 140 0
-178 581 138 0
179 552 -180 0
179 -552 -182 0
-179 -552 182 0
-179 552 180 0
180 175 -181 0
-180 -175 0
-180 181 0
181 581 -145 0
181 -581 -147 0
-181 -581 147 0
-181 581 145 0
182 175 -183 0
-182 -175 0
-182 183 0
183 581 -152 0
183 -581 -154 0
-183 -581 154 0
-183 581 152 0
-184 185 191 193 194 0
184 -194 0
184 -185 0
184 -193 0
184 -191 0
-185 545 546 186 188 0
185 -545 0
185 -188 0
185 -186 0
185 -546 0
-186 537 543 544 187 0
186 -187 0
186 -544 0
186 -537 0
186 -543 0
-187 541 542 547 0
187 -541 0
187 -547 0
187 -542 0
-188 538 539 540 189 0
188 -189 0
188 -540 0
188 -538 0
188 -539 0
-189 533 534 190 0
189 -190 0
189 -534 0
189 -533 0
-190 529 530 535 536 0
190 -536 0
190 -535 0
190 -529 0
190 -530 0
-191 527 531 532 192 0
191 -192 0
191 -532 0
191 -527 0
191 -531 0
-192 525 526 0
192 -525 0
192 -526 0
-193 521 528 0
193 -521 0
193 -528 0
-194 522 523 524 0
194 -522 0
194 -524 0
194 -523 0
195 549 -196 0
195 -549 550 -211 0
-195 -549 -550 0
-195 549 196 0
-195 -549 211 0
196 550 -197 0
196 -550 -204 0
-196 -550 204 0
-196 550 197 0
197 551 -198 0
197 -551 -201 0
-197 -551 201 0
-197 551 198 0
198 552 -199 0
198 -552 -200 0
-198 -552 200 0
-198 552 199 0
199 -51 175 0
-199 51 0
-199 -175 0
200 -88 175 0
-200 88 0
-200 -175 0
201 552 -202 0
201 -552 -203 0
-201 -552 203 0
-201 552 202 0
202 -109 175 0
-202 109 0
-202 -175 0
203 -122 175 0
-203 122 0
-203 -175 0
204 551 -205 0
204 -551 -208 0
-204 -551 208 0
-204 551 205 0
205 552 -206 0
205 -552 -207 0
-205 -552 207 0
-205 552 206 0
206 -133 175 0
-206 133 0
-206 -175 0
207 -139 175 0
-207 139 0
-207 -175 0
208 552 -209 0
208 -552 -210 0
-208 -552 210 0
-208 552 209 0
209 -146 175 0
-209 146 0
-209 -175 0
210 -153 175 0
-210 153 0
-210 -175 0
211 551 -212 0
211 -551 -215 0
-211 -551 215 0
-211 551 212 0
212 552 -213 0
212 -552 -214 0
-212 -552 214 0
-212 552 213 0
213 -161 175 0
-213 161 0
-213 -175 0
214 -164 175 0
-214 164 0
-214 -175 0
215 552 -168 175 0
215 -552 -171 175 0
-215 -175 0
-215 -552 171 0
-215 552 168 0
216 -580 9 -359 0
216 580 9 -217 0
-216 -9 0
-216 -580 359 0
-216 580 217 0
217 581 -218 0
217 -581 -331 0
-217 -581 331 0
-217 581 218 0
218 582 -219 0
218 -582 -302 0
-218 -582 302 0
-218 582 219 0
219 583 -220 0
219 -583 -275 0
-219 -583 275 0
-219 583 220 0
220 584 -221 0
220 -584 -248 0
-220 -584 248 0
-220 584 221 0
221 -548 184 -237 0
221 548 184 -222 0
-221 -184 0
-221 -548 237 0
-221 548 222 0
-222 549 223 0
-222 -549 230 0
222 -549 -230 0
222 549 -223 0
-223 550 227 0
-223 -550 224 0
223 -550 -224 0
223 550 -227 0
224 551 -225 0
224 -551 -226 0
-224 -551 226 0
-224 551 225 0
225 -552 -25 0
225 552 -24 0
-225 552 24 0
-225 -552 25 0
226 -552 -28 0
226 552 -27 0
-226 552 27 0
-226 -552 28 0
227 551 -228 0
227 -551 -229 0
-227 -551 229 0
-227 551 228 0
228 -552 -32 0
228 552 -31 0
-228 552 31 0
-228 -552 32 0
229 -552 -35 0
229 552 -34 0
-229 552 34 0
-229 -552 35 0
230 550 -231 0
230 -550 -234 0
-230 -550 234 0
-230 550 231 0
231 551 -232 0
231 -551 -233 0
-231 -551 233 0
-231 551 232 0
232 -552 -40 0
232 552 -39 0
-232 552 39 0
-232 -552 40 0
233 -552 -43 0
233 552 -42 0
-233 552 42 0
-233 -552 43 0
234 551 -235 0
234 -551 -236 0
-234 -551 236 0
-234 551 235 0
235 -552 -47 0
235 552 -46 0
-235 552 46 0
-235 -552 47 0
236 -552 -50 0
236 552 -49 0
-236 552 49 0
-236 -552 50 0
237 549 -238 0
237 -549 -245 0
-237 -549 245 0
-237 549 238 0
238 550 -239 0
238 -550 -242 0
-238 -550 242 0
-238 550 239 0
239 551 -240 0
239 -551 -241 0
-239 -551 241 0
-239 551 240 0
240 -552 -56 0
240 552 -55 0
-240 552 55 0
-240 -552 56 0
241 -552 -59 0
241 552 -58 0
-241 552 58 0
-241 -552 59 0
242 551 -243 0
242 -551 -244 0
-242 -551 244 0
-242 551 243 0
243 -552 -63 0
243 552 -62 0
-243 552 62 0
-243 -552 63 0
244 -552 -66 0
244 552 -65 0
-244 552 65 0
-244 -552 66 0
245 550 -246 0
-245 -550 0
-245 246 0
-246 551 247 0
246 -551 0
246 -247 0
247 -552 -71 0
247 552 -70 0
-247 552 70 0
-247 -552 71 0
248 -548 184 -264 0
248 548 184 -249 0
-248 -184 0
-248 -548 264 0
-248 548 249 0
-249 549 250 0
-249 -549 257 0
249 -549 -257 0
249 549 -250 0
-250 550 254 0
-250 -550 251 0
250 -550 -251 0
250 550 -254 0
251 551 -252 0
251 -551 -253 0
-251 -551 253 0
-251 551 252 0
252 -552 -27 0
252 552 -25 0
-252 552 25 0
-252 -552 27 0
253 -552 -39 0
253 552 -28 0
-253 552 28 0
-253 -552 39 0
254 551 -255 0
254 -551 -256 0
-254 -551 256 0
-254 551 255 0
255 -552 -34 0
255 552 -32 0
-255 552 32 0
-255 -552 34 0
256 552 -35 0
256 -552 -24 0
-256 -552 24 0
-256 552 35 0
257 550 -258 0
257 -550 -261 0
-257 -550 261 0
-257 550 258 0
258 551 -259 0
258 -551 -260 0
-258 -551 260 0
-258 551 259 0
259 -552 -42 0
259 552 -40 0
-259 552 40 0
-259 -552 42 0
260 -552 -46 0
260 552 -43 0
-260 552 43 0
-260 -552 46 0
261 551 -262 0
261 -551 -263 0
-261 -551 263 0
-261 551 262 0
262 -552 -49 0
262 552 -47 0
-262 552 47 0
-262 -552 49 0
263 -552 -55 0
263 552 -50 0
-263 552 50 0
-263 -552 55 0
264 549 -265 0
264 -549 -272 0
-264 -549 272 0
-264 549 265 0
265 550 -266 0
265 -550 -269 0
-265 -550 269 0
-265 550 266 0
266 551 -267 0
266 -551 -268 0
-266 -551 268 0
-266 551 267 0
267 -552 -58 0
267 552 -56 0
-267 552 56 0
-267 -552 58 0
268 -552 -62 0
268 552 -59 0
-268 552 59 0
-268 -552 62 0
269 551 -270 0
269 -551 -271 0
-269 -551 271 0
-269 551 270 0
270 -552 -65 0
270 552 -63 0
-270 552 63 0
-270 -552 65 0
271 -552 -70 0
271 552 -66 0
-271 552 66 0
-271 -552 70 0
272 550 -273 0
-272 -550 0
-272 273 0
273 551 -274 0
273 -551 552 -584 0
-273 -551 -552 0
-273 551 274 0
-273 -551 584 0
274 -552 -99 0
274 552 -71 0
-274 552 71 0
-274 -552 99 0
275 584 -276 0
275 -584 -289 0
-275 -584 289 0
-275 584 276 0
276 -548 184 -284 0
276 548 184 -277 0
-276 -184 0
-276 -548 284 0
-276 548 277 0
-277 549 278 0
-277 -549 281 0
277 -549 -281 0
277 549 -278 0
-278 550 280 0
-278 -550 279 0
278 -550 -279 0
278 550 -280 0
279 551 -226 0
279 -551 -232 0
-279 -551 232 0
-279 551 226 0
280 -551 -225 0
280 551 -229 0
-280 551 229 0
-280 -551 225 0
281 550 -282 0
281 -550 -283 0
-281 -550 283 0
-281 550 282 0
282 551 -233 0
282 -551 -235 0
-282 -551 235 0
-282 551 233 0
283 551 -236 0
283 -551 -240 0
-283 -551 240 0
-283 551 236 0
284 549 -285 0
284 -549 -288 0
-284 -549 288 0
-284 549 285 0
285 550 -286 0
285 -550 -287 0
-285 -550 287 0
-285 550 286 0
286 551 -241 0
286 -551 -243 0
-286 -551 243 0
-286 551 241 0
287 551 -244 0
287 -551 -247 0
-287 -551 247 0
-287 551 244 0
288 550 551 -583 0
288 550 551 -552 0
-288 -550 0
-288 -551 0
-288 552 583 0
289 -548 184 -297 0
289 548 184 -290 0
-289 -184 0
-289 -548 297 0
-289 548 290 0
-290 549 291 0
-290 -549 294 0
290 -549 -294 0
290 549 -291 0
-291 550 293 0
-291 -550 292 0
291 -550 -292 0
291 550 -293 0
292 551 -253 0
292 -551 -259 0
-292 -551 259 0
-292 551 253 0
293 -551 -252 0
293 551 -256 0
-293 551 256 0
-293 -551 252 0
294 550 -295 0
294 -550 -296 0
-294 -550 296 0
-294 550 295 0
295 551 -260 0
295 -551 -262 0
-295 -551 262 0
-295 551 260 0
296 551 -263 0
296 -551 -267 0
-296 -551 267 0
-296 551 263 0
297 549 -298 0
297 -549 -301 0
-297 -549 301 0
-297 549 298 0
298 550 -299 0
298 -550 -300 0
-298 -550 300 0
-298 550 299 0
299 551 -268 0
299 -551 -270 0
-299 -551 270 0
-299 551 268 0
300 -551 -552 0
300 551 -271 0
300 -551 -71 0
-300 551 271 0
-300 -551 552 71 0
301 550 551 552 -584 0
-301 584 0
-301 -552 0
-301 -550 0
-301 -551 0
302 583 -303 0
302 -583 -316 0
-302 -583 316 0
-302 583 303 0
303 584 -304 0
303 -584 -310 0
-303 -584 310 0
-303 584 304 0
304 -548 184 -308 0
304 548 184 -305 0
-304 -184 0
-304 -548 308 0
-304 548 305 0
305 549 -306 0
305 -549 -307 0
-305 -549 307 0
-305 549 306 0
306 550 -224 0
306 -550 -231 0
-306 -550 231 0
-306 550 224 0
307 550 -234 0
307 -550 -239 0
-307 -550 239 0
-307 550 234 0
308 549 -309 0
-308 -549 0
-308 309 0
309 550 -242 0
309 -550 -246 0
-309 -550 246 0
-309 550 242 0
310 -548 184 -314 0
310 548 184 -311 0
-310 -184 0
-310 -548 314 0
-310 548 311 0
311 549 -312 0
311 -549 -313 0
-311 -549 313 0
-311 549 312 0
312 550 -251 0
312 -550 -258 0
-312 -550 258 0
-312 550 251 0
313 550 -261 0
313 -550 -266 0
-313 -550 266 0
-313 550 261 0
314 549 -315 0
-314 -549 0
-314 315 0
315 550 -269 0
315 -550 -273 0
-315 -550 273 0
-315 550 269 0
316 584 -317 0
316 -584 -324 0
-316 -584 324 0
-316 584 317 0
317 -548 184 -321 0
317 548 184 -318 0
-317 -184 0
-317 -548 321 0
-317 548 318 0
318 549 -319 0
318 -549 -320 0
-318 -549 320 0
-318 549 319 0
319 550 -279 0
319 -550 -282 0
-319 -550 282 0
-319 550 279 0
320 550 -283 0
320 -550 -286 0
-320 -550 286 0
-320 550 283 0
321 549 -322 0
-321 -549 0
-321 322 0
322 550 -287 0
322 -550 -323 0
-322 -550 323 0
-322 550 287 0
323 551 -552 0
323 551 -583 0
-323 -551 0
-323 552 583 0
324 -548 184 -328 0
324 548 184 -325 0
-324 -184 0
-324 -548 328 0
-324 548 325 0
325 549 -326 0
325 -549 -327 0
-325 -549 327 0
-325 549 326 0
326 550 -292 0
326 -550 -295 0
-326 -550 295 0
-326 550 292 0
327 550 -296 0
327 -550 -299 0
-327 -550 299 0
-327 550 296 0
328 549 -329 0
-328 -549 0
-328 329 0
329 550 -300 0
329 -550 -330 0
-329 -550 330 0
-329 550 300 0
330 551 552 -584 0
-330 584 0
-330 -552 0
-330 -551 0
331 582 -332 0
331 -582 -347 0
-331 -582 347 0
-331 582 332 0
332 583 -333 0
332 -583 -340 0
-332 -583 340 0
-332 583 333 0
333 584 -334 0
333 -584 -337 0
-333 -584 337 0
-333 584 334 0
334 -548 184 -336 0
334 548 184 -335 0
-334 -184 0
-334 -548 336 0
-334 548 335 0
335 549 -230 0
335 -549 -238 0
-335 -549 238 0
-335 549 230 0
336 549 -245 0
-336 -549 0
-336 245 0
337 -548 184 -339 0
337 548 184 -338 0
-337 -184 0
-337 -548 339 0
-337 548 338 0
338 549 -257 0
338 -549 -265 0
-338 -549 265 0
-338 549 257 0
339 549 -272 0
-339 -549 0
-339 272 0
340 584 -341 0
340 -584 -344 0
-340 -584 344 0
-340 584 341 0
341 -548 184 -343 0
341 548 184 -342 0
-341 -184 0
-341 -548 343 0
-341 548 342 0
342 549 -281 0
342 -549 -285 0
-342 -549 285 0
-342 549 281 0
343 549 -288 0
-343 -549 0
-343 288 0
344 -548 184 -346 0
344 548 184 -345 0
-344 -184 0
-344 -548 346 0
-344 548 345 0
345 549 -294 0
345 -549 -298 0
-345 -549 298 0
-345 549 294 0
346 549 -301 0
-346 -549 0
-346 301 0
347 583 -348 0
347 -583 -354 0
-347 -583 354 0
-347 583 348 0
348 584 -349 0
348 -584 -352 0
-348 -584 352 0
-348 584 349 0
349 350 -351 0
-349 -350 0
-349 351 0
-350 548 184 0
350 -548 0
350 -184 0
351 549 -307 0
351 -549 -309 0
-351 -549 309 0
-351 549 307 0
352 350 -353 0
-352 -350 0
-352 353 0
353 549 -313 0
353 -549 -315 0
-353 -549 315 0
-353 549 313 0
354 584 -355 0
354 -584 -357 0
-354 -584 357 0
-354 584 355 0
355 350 -356 0
-355 -350 0
-355 356 0
356 549 -320 0
356 -549 -322 0
-356 -549 322 0
-356 549 320 0
357 350 -358 0
-357 -350 0
-357 358 0
358 549 -327 0
358 -549 -329 0
-358 -549 329 0
-358 549 327 0
359 581 -360 0
359 -581 582 -375 0
-359 -581 -582 0
-359 581 360 0
-359 -581 375 0
360 582 -361 0
360 -582 -368 0
-360 -582 368 0
-360 582 361 0
361 583 -362 0
361 -583 -365 0
-361 -583 365 0
-361 583 362 0
362 584 -363 0
362 -584 -364 0
-362 -584 364 0
-362 584 363 0
363 -237 350 0
-363 237 0
-363 -350 0
364 -264 350 0
-364 264 0
-364 -350 0
365 584 -366 0
365 -584 -367 0
-365 -584 367 0
-365 584 366 0
366 -284 350 0
-366 284 0
-366 -350 0
367 -297 350 0
-367 297 0
-367 -350 0
368 583 -369 0
368 -583 -372 0
-368 -583 372 0
-368 583 369 0
369 584 -370 0
369 -584 -371 0
-369 -584 371 0
-369 584 370 0
370 -308 350 0
-370 308 0
-370 -350 0
371 -314 350 0
-371 314 0
-371 -350 0
372 584 -373 0
372 -584 -374 0
-372 -584 374 0
-372 584 373 0
373 -321 350 0
-373 321 0
-373 -350 0
374 -328 350 0
-374 328 0
-374 -350 0
375 583 -376 0
375 -583 -379 0
-375 -583 379 0
-375 583 376 0
376 584 -377 0
376 -584 -378 0
-376 -584 378 0
-376 584 377 0
377 -336 350 0
-377 336 0
-377 -350 0
378 -339 350 0
-378 339 0
-378 -350 0
379 584 -343 350 0
379 -584 -346 350 0
-379 -350 0
-379 -584 346 0
-379 584 343 0
-380 381 406 -429 -461 0
-380 -381 -406 -429 -461 0
-380 381 406 429 461 0
-380 -381 -406 429 461 0
380 381 -406 0
380 -381 406 0
380 429 -461 0
380 -429 461 0
381 -548 184 -401 0
381 548 184 -382 0
-381 -184 0
-381 -548 401 0
-381 548 382 0
382 549 -383 0
382 -549 -399 400 0
-382 -549 399 0
-382 549 383 0
-382 -549 -400 0
383 550 -384 0
383 -550 -398 0
-383 -550 398 0
-383 550 384 0
384 -551 -7 0
384 551 -385 0
-384 551 385 0
-384 -551 7 0
385 552 -386 0
385 -552 -393 0
-385 -552 393 0
-385 552 386 0
386 580 9 -387 0
386 -580 9 -181 0
-386 -9 0
-386 580 387 0
-386 -580 181 0
-387 -581 144 0
-387 581 388 0
387 -581 -144 0
387 581 -388 0
-388 -582 105 0
-388 582 389 0
388 -582 -105 0
388 582 -389 0
-389 583 390 0
-389 -583 30 0
389 -583 -30 0
389 583 -390 0
390 -584 -392 0
390 584 -391 0
-390 584 391 0
-390 -584 392 0
-391 523 555 0
391 -523 0
391 -555 0
-392 524 556 0
392 -524 0
392 -556 0
393 580 9 -394 0
393 -580 9 -183 0
-393 -9 0
-393 580 394 0
-393 -580 183 0
-394 -581 151 0
-394 581 395 0
394 -581 -151 0
394 581 -395 0
-395 -582 118 0
-395 582 396 0
395 -582 -118 0
395 582 -396 0
-396 583 397 0
-396 -583 79 0
396 -583 -79 0
396 583 -397 0
397 584 -392 0
397 -584 -31 0
-397 -584 31 0
-397 584 392 0
398 551 -100 0
398 -551 -128 0
-398 -551 128 0
-398 551 100 0
-399 550 -551 158 0
-399 550 551 141 0
399 -550 0
399 -551 -158 0
399 551 -141 0
400 -550 -551 173 0
400 -550 551 165 0
-400 550 0
-400 -551 -173 0
-400 551 -165 0
401 -549 -404 0
401 549 -402 403 0
-401 549 402 0
-401 -549 404 0
-401 549 -403 0
-402 550 -551 198 0
-402 550 551 179 0
402 -550 0
402 -551 -198 0
402 551 -179 0
403 -550 -551 205 0
403 -550 551 201 0
-403 550 0
-403 -551 -205 0
-403 551 -201 0
404 550 -405 0
404 -550 551 -215 0
-404 -550 -551 0
-404 550 405 0
-404 -550 215 0
405 551 -208 0
405 -551 -212 0
-405 -551 212 0
-405 551 208 0
406 -580 9 -424 0
406 580 9 -407 0
-406 -9 0
-406 -580 424 0
-406 580 407 0
407 581 -408 0
407 -581 -422 423 0
-407 -581 422 0
-407 581 408 0
-407 -581 -423 0
408 582 -409 0
408 -582 -421 0
-408 -582 421 0
-408 582 409 0
409 -583 -220 0
409 583 -410 0
-409 583 410 0
-409 -583 220 0
410 584 -411 0
410 -584 -416 0
-410 -584 416 0
-410 584 411 0
411 548 184 -412 0
411 -548 184 -356 0
-411 -184 0
-411 548 412 0
-411 -548 356 0
-412 -549 319 0
-412 549 413 0
412 -549 -319 0
412 549 -413 0
-413 -550 280 0
-413 550 414 0
413 -550 -280 0
413 550 -414 0
-414 551 415 0
-414 -551 228 0
414 -551 -228 0
414 551 -415 0
415 -552 -392 0
415 552 -391 0
-415 552 391 0
-415 -552 392 0
416 548 184 -417 0
416 -548 184 -358 0
-416 -184 0
-416 548 417 0
-416 -548 358 0
-417 -549 326 0
-417 549 418 0
417 -549 -326 0
417 549 -418 0
-418 -550 293 0
-418 550 419 0
418 -550 -293 0
418 550 -419 0
-419 551 420 0
-419 -551 255 0
419 -551 -255 0
419 551 -420 0
420 552 -392 0
420 -552 -31 0
-420 -552 31 0
-420 552 392 0
421 583 -275 0
421 -583 -303 0
-421 -583 303 0
-421 583 275 0
-422 582 -583 333 0
-422 582 583 316 0
422 -582 0
422 -583 -333 0
422 583 -316 0
423 -582 -583 348 0
423 -582 583 340 0
-423 582 0
-423 -583 -348 0
-423 583 -340 0
424 -581 -427 0
424 581 -425 426 0
-424 581 425 0
-424 -581 427 0
-424 581 -426 0
-425 582 -583 362 0
-425 582 583 354 0
425 -582 0
425 -583 -362 0
425 583 -354 0
426 -582 -583 369 0
426 -582 583 365 0
-426 582 0
-426 -583 -369 0
-426 583 -365 0
427 582 -428 0
427 -582 583 -379 0
-427 -582 -583 0
-427 582 428 0
-427 -582 379 0
428 583 -372 0
428 -583 -376 0
-428 -583 376 0
-428 583 372 0
429 -548 184 -449 0
429 548 184 -430 0
-429 -184 0
-429 -548 449 0
-429 548 430 0
430 549 -431 0
430 -549 -443 446 0
-430 -549 443 0
-430 549 431 0
-430 -549 -446 0
431 550 -432 0
431 -550 -441 442 0
-431 -550 441 0
-431 550 432 0
-431 -550 -442 0
432 551 -433 0
432 -551 -440 0
-432 -551 440 0
-432 551 433 0
433 -552 -386 0
433 552 -434 0
-433 552 434 0
-433 -552 386 0
434 580 9 -435 0
434 -580 9 -178 0
-434 -9 0
-434 580 435 0
-434 -580 178 0
-435 -581 137 0
-435 581 436 0
435 -581 -137 0
435 581 -436 0
-436 -582 78 0
-436 582 437 0
436 -582 -78 0
436 582 -437 0
-437 583 438 0
-437 -583 397 0
437 -583 -397 0
437 583 -438 0
438 584 -439 0
438 -584 -391 0
-438 -584 391 0
-438 584 439 0
-439 522 554 0
439 -522 0
439 -554 0
440 -552 -8 0
440 552 -393 0
-440 552 393 0
-440 -552 8 0
-441 551 -552 101 0
-441 551 552 72 0
441 -551 0
441 -552 -101 0
441 552 -72 0
442 -551 -552 129 0
442 -551 552 114 0
-442 551 0
-442 -552 -129 0
-442 552 -114 0
-443 550 -551 445 0
-443 550 551 444 0
443 -550 0
443 -551 -445 0
443 551 -444 0
444 552 -135 0
444 -552 -142 0
-444 -552 142 0
-444 552 135 0
445 552 -149 0
445 -552 -159 0
-445 -552 159 0
-445 552 149 0
446 -550 -551 448 0
446 -550 551 447 0
-446 550 0
-446 -551 -448 0
-446 551 -447 0
447 552 -162 0
447 -552 -166 0
-447 -552 166 0
-447 552 162 0
448 552 -169 0
448 -552 -174 0
-448 -552 174 0
-448 552 169 0
449 -549 -456 0
449 549 -450 453 0
-449 549 450 0
-449 -549 456 0
-449 549 -453 0
-450 550 -551 452 0
-450 550 551 451 0
450 -550 0
450 -551 -452 0
450 551 -451 0
451 552 -177 0
451 -552 -180 0
-451 -552 180 0
-451 552 177 0
452 552 -182 0
452 -552 -199 0
-452 -552 199 0
-452 552 182 0
453 -550 -551 455 0
453 -550 551 454 0
-453 550 0
-453 -551 -455 0
-453 551 -454 0
454 552 -200 0
454 -552 -202 0
-454 -552 202 0
-454 552 200 0
455 552 -203 0
455 -552 -206 0
-455 -552 206 0
-455 552 203 0
456 -550 -459 0
456 550 -457 458 0
-456 550 457 0
-456 -550 459 0
-456 550 -458 0
-457 551 -552 209 0
-457 551 552 207 0
457 -551 0
457 -552 -209 0
457 552 -207 0
458 -551 -552 213 0
458 -551 552 210 0
-458 551 0
-458 -552 -213 0
-458 552 -210 0
459 551 -552 -460 0
459 551 552 -214 0
-459 -551 0
-459 -552 460 0
-459 552 214 0
460 -168 175 0
-460 168 0
-460 -175 0
461 -580 9 -480 0
461 580 9 -462 0
-461 -9 0
-461 -580 480 0
-461 580 462 0
462 581 -463 0
462 -581 -474 477 0
-462 -581 474 0
-462 581 463 0
-462 -581 -477 0
463 582 -464 0
463 -582 -472 473 0
-463 -582 472 0
-463 582 464 0
-463 -582 -473 0
464 583 -465 0
464 -583 -471 0
-464 -583 471 0
-464 583 465 0
465 -584 -411 0
465 584 -466 0
-465 584 466 0
-465 -584 411 0
466 548 184 -467 0
466 -548 184 -353 0
-466 -184 0
-466 548 467 0
-466 -548 353 0
-467 -549 312 0
-467 549 468 0
467 -549 -312 0
467 549 -468 0
-468 -550 254 0
-468 550 469 0
468 -550 -254 0
468 550 -469 0
-469 551 470 0
-469 -551 420 0
469 -551 -420 0
469 551 -470 0
470 552 -439 0
470 -552 -391 0
-470 -552 391 0
-470 552 439 0
471 -584 -221 0
471 584 -416 0
-471 584 416 0
-471 -584 221 0
-472 583 -584 276 0
-472 583 584 248 0
472 -583 0
472 -584 -276 0
472 584 -248 0
473 -583 -584 304 0
473 -583 584 289 0
-473 583 0
-473 -584 -304 0
-473 584 -289 0
-474 582 -583 476 0
-474 582 583 475 0
474 -582 0
474 -583 -476 0
474 583 -475 0
475 584 -310 0
475 -584 -317 0
-475 -584 317 0
-475 584 310 0
476 584 -324 0
476 -584 -334 0
-476 -584 334 0
-476 584 324 0
477 -582 -583 479 0
477 -582 583 478 0
-477 582 0
-477 -583 -479 0
-477 583 -478 0
478 584 -337 0
478 -584 -341 0
-478 -584 341 0
-478 584 337 0
479 584 -344 0
479 -584 -349 0
-479 -584 349 0
-479 584 344 0
480 -581 -487 0
480 581 -481 484 0
-480 581 481 0
-480 -581 487 0
-480 581 -484 0
-481 582 -583 483 0
-481 582 583 482 0
481 -582 0
481 -583 -483 0
481 583 -482 0
482 584 -352 0
482 -584 -355 0
-482 -584 355 0
-482 584 352 0
483 584 -357 0
483 -584 -363 0
-483 -584 363 0
-483 584 357 0
484 -582 -583 486 0
484 -582 583 485 0
-484 582 0
-484 -583 -486 0
-484 583 -485 0
485 584 -364 0
485 -584 -366 0
-485 -584 366 0
-485 584 364 0
486 584 -367 0
486 -584 -370 0
-486 -584 370 0
-486 584 367 0
487 -582 -490 0
487 582 -488 489 0
-487 582 488 0
-487 -582 490 0
-487 582 -489 0
-488 583 -584 373 0
-488 583 584 371 0
488 -583 0
488 -584 -373 0
488 584 -371 0
489 -583 -584 377 0
489 -583 584 374 0
-489 583 0
-489 -584 -377 0
-489 584 -374 0
490 583 -584 -491 0
490 583 584 -378 0
-490 -583 0
-490 -584 491 0
-490 584 378 0
491 -343 350 0
-491 343 0
-491 -350 0
492 493 -507 0
492 -493 507 0
-492 -493 -507 0
-492 493 507 0
493 -548 184 -504 0
493 548 184 -494 0
-493 -184 0
-493 -548 504 0
-493 548 494 0
494 549 -495 0
494 -549 -503 0
-494 -549 503 0
-494 549 495 0
495 -550 -6 0
495 550 -496 0
-495 550 496 0
-495 -550 6 0
496 -551 -385 0
496 551 -497 0
-496 551 497 0
-496 -551 385 0
497 -552 -434 0
497 552 9 -498 0
-497 -552 434 0
-497 552 498 0
-497 552 -9 0
-498 -580 176 0
-498 580 499 0
498 -580 -176 0
498 580 -499 0
-499 -581 131 0
-499 581 500 0
499 -581 -131 0
499 581 -500 0
-500 582 501 0
-500 -582 29 0
500 -582 -29 0
500 582 -501 0
501 -583 -390 0
501 583 -502 0
-501 583 502 0
-501 -583 390 0
502 -553 584 0
502 -584 -439 0
502 -521 584 0
-502 -584 439 0
-502 521 553 584 0
503 550 -127 0
503 -550 -157 0
-503 -550 157 0
-503 550 127 0
504 549 -505 0
504 -549 -506 0
-504 -549 506 0
-504 549 505 0
505 550 -172 0
505 -550 -197 0
-505 -550 197 0
-505 550 172 0
506 550 -204 0
506 -550 -211 0
-506 -550 211 0
-506 550 204 0
507 -580 9 -518 0
507 580 9 -508 0
-507 -9 0
-507 -580 518 0
-507 580 508 0
508 581 -509 0
508 -581 -517 0
-508 -581 517 0
-508 581 509 0
509 -582 -219 0
509 582 -510 0
-509 582 510 0
-509 -582 219 0
510 -583 -410 0
510 583 -511 0
-510 583 511 0
-510 -583 410 0
511 -584 -466 0
511 584 184 -512 0
-511 -584 466 0
-511 584 512 0
-511 584 -184 0
-512 -548 351 0
-512 548 513 0
512 -548 -351 0
512 548 -513 0
-513 -549 306 0
-513 549 514 0
513 -549 -306 0
513 549 -514 0
-514 550 515 0
-514 -550 227 0
514 -550 -227 0
514 550 -515 0
515 -551 -415 0
515 551 -516 0
-515 551 516 0
-515 -551 415 0
516 -521 552 0
516 -552 -439 0
516 552 -553 0
-516 -552 439 0
-516 521 552 553 0
517 582 -302 0
517 -582 -332 0
-517 -582 332 0
-517 582 302 0
518 581 -519 0
518 -581 -520 0
-518 -581 520 0
-518 581 519 0
519 582 -347 0
519 -582 -361 0
-519 -582 361 0
-519 582 347 0
520 582 -368 0
520 -582 -375 0
-520 -582 375 0
-520 582 368 0
-585 0
2 0

